N = 5;
Q = [[[[0.         0.         0.         0.         0.        ]
   [0.         5.81755083 5.7371467  8.8899267  7.85433333]
   [0.         0.         0.         0.         0.        ]
   [0.         0.         0.         0.         0.        ]
   [0.         0.         0.         0.         0.        ]]

  [[0.         0.         0.         0.         0.        ]
   [5.81755083 0.         1.93873927 7.11460521 4.39121128]
   [0.         0.         0.         0.         0.        ]
   [0.         0.         0.         0.         0.        ]
   [0.         0.         0.         0.         0.        ]]

  [[0.         0.         0.         0.         0.        ]
   [5.7371467  1.93873927 0.         9.61638    9.46928509]
   [0.         0.         0.         0.         0.        ]
   [0.         0.         0.         0.         0.        ]
   [0.         0.         0.         0.         0.        ]]

  [[0.         0.         0.         0.         0.        ]
   [8.8899267  7.11460521 9.61638    0.         5.88151146]
   [0.         0.         0.         0.         0.        ]
   [0.         0.         0.         0.         0.        ]
   [0.         0.         0.         0.         0.        ]]

  [[0.         0.         0.         0.         0.        ]
   [7.85433333 4.39121128 9.46928509 5.88151146 0.        ]
   [0.         0.         0.         0.         0.        ]
   [0.         0.         0.         0.         0.        ]
   [0.         0.         0.         0.         0.        ]]]


 [[[0.         0.         0.         0.         0.        ]
   [0.         0.         0.         0.         0.        ]
   [0.         5.81755083 5.7371467  8.8899267  7.85433333]
   [0.         0.         0.         0.         0.        ]
   [0.         0.         0.         0.         0.        ]]

  [[0.         0.         0.         0.         0.        ]
   [0.         0.         0.         0.         0.        ]
   [5.81755083 0.         1.93873927 7.11460521 4.39121128]
   [0.         0.         0.         0.         0.        ]
   [0.         0.         0.         0.         0.        ]]

  [[0.         0.         0.         0.         0.        ]
   [0.         0.         0.         0.         0.        ]
   [5.7371467  1.93873927 0.         9.61638    9.46928509]
   [0.         0.         0.         0.         0.        ]
   [0.         0.         0.         0.         0.        ]]

  [[0.         0.         0.         0.         0.        ]
   [0.         0.         0.         0.         0.        ]
   [8.8899267  7.11460521 9.61638    0.         5.88151146]
   [0.         0.         0.         0.         0.        ]
   [0.         0.         0.         0.         0.        ]]

  [[0.         0.         0.         0.         0.        ]
   [0.         0.         0.         0.         0.        ]
   [7.85433333 4.39121128 9.46928509 5.88151146 0.        ]
   [0.         0.         0.         0.         0.        ]
   [0.         0.         0.         0.         0.        ]]]


 [[[0.         0.         0.         0.         0.        ]
   [0.         0.         0.         0.         0.        ]
   [0.         0.         0.         0.         0.        ]
   [0.         5.81755083 5.7371467  8.8899267  7.85433333]
   [0.         0.         0.         0.         0.        ]]

  [[0.         0.         0.         0.         0.        ]
   [0.         0.         0.         0.         0.        ]
   [0.         0.         0.         0.         0.        ]
   [5.81755083 0.         1.93873927 7.11460521 4.39121128]
   [0.         0.         0.         0.         0.        ]]

  [[0.         0.         0.         0.         0.        ]
   [0.         0.         0.         0.         0.        ]
   [0.         0.         0.         0.         0.        ]
   [5.7371467  1.93873927 0.         9.61638    9.46928509]
   [0.         0.         0.         0.         0.        ]]

  [[0.         0.         0.         0.         0.        ]
   [0.         0.         0.         0.         0.        ]
   [0.         0.         0.         0.         0.        ]
   [8.8899267  7.11460521 9.61638    0.         5.88151146]
   [0.         0.         0.         0.         0.        ]]

  [[0.         0.         0.         0.         0.        ]
   [0.         0.         0.         0.         0.        ]
   [0.         0.         0.         0.         0.        ]
   [7.85433333 4.39121128 9.46928509 5.88151146 0.        ]
   [0.         0.         0.         0.         0.        ]]]


 [[[0.         0.         0.         0.         0.        ]
   [0.         0.         0.         0.         0.        ]
   [0.         0.         0.         0.         0.        ]
   [0.         0.         0.         0.         0.        ]
   [0.         5.81755083 5.7371467  8.8899267  7.85433333]]

  [[0.         0.         0.         0.         0.        ]
   [0.         0.         0.         0.         0.        ]
   [0.         0.         0.         0.         0.        ]
   [0.         0.         0.         0.         0.        ]
   [5.81755083 0.         1.93873927 7.11460521 4.39121128]]

  [[0.         0.         0.         0.         0.        ]
   [0.         0.         0.         0.         0.        ]
   [0.         0.         0.         0.         0.        ]
   [0.         0.         0.         0.         0.        ]
   [5.7371467  1.93873927 0.         9.61638    9.46928509]]

  [[0.         0.         0.         0.         0.        ]
   [0.         0.         0.         0.         0.        ]
   [0.         0.         0.         0.         0.        ]
   [0.         0.         0.         0.         0.        ]
   [8.8899267  7.11460521 9.61638    0.         5.88151146]]

  [[0.         0.         0.         0.         0.        ]
   [0.         0.         0.         0.         0.        ]
   [0.         0.         0.         0.         0.        ]
   [0.         0.         0.         0.         0.        ]
   [7.85433333 4.39121128 9.46928509 5.88151146 0.        ]]]


 [[[0.         5.81755083 5.7371467  8.8899267  7.85433333]
   [0.         0.         0.         0.         0.        ]
   [0.         0.         0.         0.         0.        ]
   [0.         0.         0.         0.         0.        ]
   [0.         0.         0.         0.         0.        ]]

  [[5.81755083 0.         1.93873927 7.11460521 4.39121128]
   [0.         0.         0.         0.         0.        ]
   [0.         0.         0.         0.         0.        ]
   [0.         0.         0.         0.         0.        ]
   [0.         0.         0.         0.         0.        ]]

  [[5.7371467  1.93873927 0.         9.61638    9.46928509]
   [0.         0.         0.         0.         0.        ]
   [0.         0.         0.         0.         0.        ]
   [0.         0.         0.         0.         0.        ]
   [0.         0.         0.         0.         0.        ]]

  [[8.8899267  7.11460521 9.61638    0.         5.88151146]
   [0.         0.         0.         0.         0.        ]
   [0.         0.         0.         0.         0.        ]
   [0.         0.         0.         0.         0.        ]
   [0.         0.         0.         0.         0.        ]]

  [[7.85433333 4.39121128 9.46928509 5.88151146 0.        ]
   [0.         0.         0.         0.         0.        ]
   [0.         0.         0.         0.         0.        ]
   [0.         0.         0.         0.         0.        ]
   [0.         0.         0.         0.         0.        ]]]];
// The indices of the 4-tensor Q are (time,node, time,node). It is to be contracted with boolean variables x with indices (time,node) that are constrained to be orthogonal. One should also fix a starting point, e.g. x(1,1)=1. To unfold it and write everything in standard matrix formulation, use np.reshape(Q,(N**2,N**2) and np.reshape(x,N**2).